Route #1: 37 5 8 27 10 44 47
Route #2: 29 51 35 33 7 43 2
Route #3: 48 38 34 32 19 15 46 13 9 16
Route #4: 22 26 49 17 50 12 23 45 4
Route #5: 28 11 21 14 39 24 31 3
Route #6: 40 42 20 30 18 1 41
Route #7: 25 6 36
Cost 758